p cnf 319 464
57 58 1 88 0
57 58 1 -88 0
-57 -58 1 89 0
-57 -58 1 -89 0
57 -58 -1 90 0
57 -58 -1 -90 0
-57 58 -1 91 0
-57 58 -1 -91 0
1 59 2 92 0
1 59 2 -92 0
-1 -59 2 93 0
-1 -59 2 -93 0
1 -59 -2 94 0
1 -59 -2 -94 0
-1 59 -2 95 0
-1 59 -2 -95 0
2 60 3 96 0
2 60 3 -96 0
-2 -60 3 97 0
-2 -60 3 -97 0
2 -60 -3 98 0
2 -60 -3 -98 0
-2 60 -3 99 0
-2 60 -3 -99 0
3 61 4 100 0
3 61 4 -100 0
-3 -61 4 101 0
-3 -61 4 -101 0
3 -61 -4 102 0
3 -61 -4 -102 0
-3 61 -4 103 0
-3 61 -4 -103 0
4 62 5 104 0
4 62 5 -104 0
-4 -62 5 105 0
-4 -62 5 -105 0
4 -62 -5 106 0
4 -62 -5 -106 0
-4 62 -5 107 0
-4 62 -5 -107 0
5 63 6 108 0
5 63 6 -108 0
-5 -63 6 109 0
-5 -63 6 -109 0
5 -63 -6 110 0
5 -63 -6 -110 0
-5 63 -6 111 0
-5 63 -6 -111 0
6 64 7 112 0
6 64 7 -112 0
-6 -64 7 113 0
-6 -64 7 -113 0
6 -64 -7 114 0
6 -64 -7 -114 0
-6 64 -7 115 0
-6 64 -7 -115 0
7 65 8 116 0
7 65 8 -116 0
-7 -65 8 117 0
-7 -65 8 -117 0
7 -65 -8 118 0
7 -65 -8 -118 0
-7 65 -8 119 0
-7 65 -8 -119 0
8 66 9 120 0
8 66 9 -120 0
-8 -66 9 121 0
-8 -66 9 -121 0
8 -66 -9 122 0
8 -66 -9 -122 0
-8 66 -9 123 0
-8 66 -9 -123 0
9 67 10 124 0
9 67 10 -124 0
-9 -67 10 125 0
-9 -67 10 -125 0
9 -67 -10 126 0
9 -67 -10 -126 0
-9 67 -10 127 0
-9 67 -10 -127 0
10 68 11 128 0
10 68 11 -128 0
-10 -68 11 129 0
-10 -68 11 -129 0
10 -68 -11 130 0
10 -68 -11 -130 0
-10 68 -11 131 0
-10 68 -11 -131 0
11 69 12 132 0
11 69 12 -132 0
-11 -69 12 133 0
-11 -69 12 -133 0
11 -69 -12 134 0
11 -69 -12 -134 0
-11 69 -12 135 0
-11 69 -12 -135 0
12 70 13 136 0
12 70 13 -136 0
-12 -70 13 137 0
-12 -70 13 -137 0
12 -70 -13 138 0
12 -70 -13 -138 0
-12 70 -13 139 0
-12 70 -13 -139 0
13 71 14 140 0
13 71 14 -140 0
-13 -71 14 141 0
-13 -71 14 -141 0
13 -71 -14 142 0
13 -71 -14 -142 0
-13 71 -14 143 0
-13 71 -14 -143 0
14 72 15 144 0
14 72 15 -144 0
-14 -72 15 145 0
-14 -72 15 -145 0
14 -72 -15 146 0
14 -72 -15 -146 0
-14 72 -15 147 0
-14 72 -15 -147 0
15 73 16 148 0
15 73 16 -148 0
-15 -73 16 149 0
-15 -73 16 -149 0
15 -73 -16 150 0
15 -73 -16 -150 0
-15 73 -16 151 0
-15 73 -16 -151 0
16 74 17 152 0
16 74 17 -152 0
-16 -74 17 153 0
-16 -74 17 -153 0
16 -74 -17 154 0
16 -74 -17 -154 0
-16 74 -17 155 0
-16 74 -17 -155 0
17 75 18 156 0
17 75 18 -156 0
-17 -75 18 157 0
-17 -75 18 -157 0
17 -75 -18 158 0
17 -75 -18 -158 0
-17 75 -18 159 0
-17 75 -18 -159 0
18 76 19 160 0
18 76 19 -160 0
-18 -76 19 161 0
-18 -76 19 -161 0
18 -76 -19 162 0
18 -76 -19 -162 0
-18 76 -19 163 0
-18 76 -19 -163 0
19 77 20 164 0
19 77 20 -164 0
-19 -77 20 165 0
-19 -77 20 -165 0
19 -77 -20 166 0
19 -77 -20 -166 0
-19 77 -20 167 0
-19 77 -20 -167 0
20 78 21 168 0
20 78 21 -168 0
-20 -78 21 169 0
-20 -78 21 -169 0
20 -78 -21 170 0
20 -78 -21 -170 0
-20 78 -21 171 0
-20 78 -21 -171 0
21 79 22 172 0
21 79 22 -172 0
-21 -79 22 173 0
-21 -79 22 -173 0
21 -79 -22 174 0
21 -79 -22 -174 0
-21 79 -22 175 0
-21 79 -22 -175 0
22 80 23 176 0
22 80 23 -176 0
-22 -80 23 177 0
-22 -80 23 -177 0
22 -80 -23 178 0
22 -80 -23 -178 0
-22 80 -23 179 0
-22 80 -23 -179 0
23 81 24 180 0
23 81 24 -180 0
-23 -81 24 181 0
-23 -81 24 -181 0
23 -81 -24 182 0
23 -81 -24 -182 0
-23 81 -24 183 0
-23 81 -24 -183 0
24 82 25 184 0
24 82 25 -184 0
-24 -82 25 185 0
-24 -82 25 -185 0
24 -82 -25 186 0
24 -82 -25 -186 0
-24 82 -25 187 0
-24 82 -25 -187 0
25 83 26 188 0
25 83 26 -188 0
-25 -83 26 189 0
-25 -83 26 -189 0
25 -83 -26 190 0
25 -83 -26 -190 0
-25 83 -26 191 0
-25 83 -26 -191 0
26 84 27 192 0
26 84 27 -192 0
-26 -84 27 193 0
-26 -84 27 -193 0
26 -84 -27 194 0
26 -84 -27 -194 0
-26 84 -27 195 0
-26 84 -27 -195 0
27 85 28 196 0
27 85 28 -196 0
-27 -85 28 197 0
-27 -85 28 -197 0
27 -85 -28 198 0
27 -85 -28 -198 0
-27 85 -28 199 0
-27 85 -28 -199 0
28 86 87 200 0
28 86 87 -200 0
-28 -86 87 201 0
-28 -86 87 -201 0
28 -86 -87 202 0
28 -86 -87 -202 0
-28 86 -87 203 0
-28 86 -87 -203 0
29 86 87 204 0
29 86 87 -204 0
-29 -86 87 205 0
-29 -86 87 -205 0
29 -86 -87 206 0
29 -86 -87 -206 0
-29 86 -87 207 0
-29 86 -87 -207 0
30 85 29 208 0
30 85 29 -208 0
-30 -85 29 209 0
-30 -85 29 -209 0
30 -85 -29 210 0
30 -85 -29 -210 0
-30 85 -29 211 0
-30 85 -29 -211 0
31 84 30 212 0
31 84 30 -212 0
-31 -84 30 213 0
-31 -84 30 -213 0
31 -84 -30 214 0
31 -84 -30 -214 0
-31 84 -30 215 0
-31 84 -30 -215 0
32 83 31 216 0
32 83 31 -216 0
-32 -83 31 217 0
-32 -83 31 -217 0
32 -83 -31 218 0
32 -83 -31 -218 0
-32 83 -31 219 0
-32 83 -31 -219 0
33 82 32 220 0
33 82 32 -220 0
-33 -82 32 221 0
-33 -82 32 -221 0
33 -82 -32 222 0
33 -82 -32 -222 0
-33 82 -32 223 0
-33 82 -32 -223 0
34 81 33 224 0
34 81 33 -224 0
-34 -81 33 225 0
-34 -81 33 -225 0
34 -81 -33 226 0
34 -81 -33 -226 0
-34 81 -33 227 0
-34 81 -33 -227 0
35 80 34 228 0
35 80 34 -228 0
-35 -80 34 229 0
-35 -80 34 -229 0
35 -80 -34 230 0
35 -80 -34 -230 0
-35 80 -34 231 0
-35 80 -34 -231 0
36 79 35 232 0
36 79 35 -232 0
-36 -79 35 233 0
-36 -79 35 -233 0
36 -79 -35 234 0
36 -79 -35 -234 0
-36 79 -35 235 0
-36 79 -35 -235 0
37 78 36 236 0
37 78 36 -236 0
-37 -78 36 237 0
-37 -78 36 -237 0
37 -78 -36 238 0
37 -78 -36 -238 0
-37 78 -36 239 0
-37 78 -36 -239 0
38 77 37 240 0
38 77 37 -240 0
-38 -77 37 241 0
-38 -77 37 -241 0
38 -77 -37 242 0
38 -77 -37 -242 0
-38 77 -37 243 0
-38 77 -37 -243 0
39 76 38 244 0
39 76 38 -244 0
-39 -76 38 245 0
-39 -76 38 -245 0
39 -76 -38 246 0
39 -76 -38 -246 0
-39 76 -38 247 0
-39 76 -38 -247 0
40 75 39 248 0
40 75 39 -248 0
-40 -75 39 249 0
-40 -75 39 -249 0
40 -75 -39 250 0
40 -75 -39 -250 0
-40 75 -39 251 0
-40 75 -39 -251 0
41 74 40 252 0
41 74 40 -252 0
-41 -74 40 253 0
-41 -74 40 -253 0
41 -74 -40 254 0
41 -74 -40 -254 0
-41 74 -40 255 0
-41 74 -40 -255 0
42 73 41 256 0
42 73 41 -256 0
-42 -73 41 257 0
-42 -73 41 -257 0
42 -73 -41 258 0
42 -73 -41 -258 0
-42 73 -41 259 0
-42 73 -41 -259 0
43 72 42 260 0
43 72 42 -260 0
-43 -72 42 261 0
-43 -72 42 -261 0
43 -72 -42 262 0
43 -72 -42 -262 0
-43 72 -42 263 0
-43 72 -42 -263 0
44 71 43 264 0
44 71 43 -264 0
-44 -71 43 265 0
-44 -71 43 -265 0
44 -71 -43 266 0
44 -71 -43 -266 0
-44 71 -43 267 0
-44 71 -43 -267 0
45 70 44 268 0
45 70 44 -268 0
-45 -70 44 269 0
-45 -70 44 -269 0
45 -70 -44 270 0
45 -70 -44 -270 0
-45 70 -44 271 0
-45 70 -44 -271 0
46 69 45 272 0
46 69 45 -272 0
-46 -69 45 273 0
-46 -69 45 -273 0
46 -69 -45 274 0
46 -69 -45 -274 0
-46 69 -45 275 0
-46 69 -45 -275 0
47 68 46 276 0
47 68 46 -276 0
-47 -68 46 277 0
-47 -68 46 -277 0
47 -68 -46 278 0
47 -68 -46 -278 0
-47 68 -46 279 0
-47 68 -46 -279 0
48 67 47 280 0
48 67 47 -280 0
-48 -67 47 281 0
-48 -67 47 -281 0
48 -67 -47 282 0
48 -67 -47 -282 0
-48 67 -47 283 0
-48 67 -47 -283 0
49 66 48 284 0
49 66 48 -284 0
-49 -66 48 285 0
-49 -66 48 -285 0
49 -66 -48 286 0
49 -66 -48 -286 0
-49 66 -48 287 0
-49 66 -48 -287 0
50 65 49 288 0
50 65 49 -288 0
-50 -65 49 289 0
-50 -65 49 -289 0
50 -65 -49 290 0
50 -65 -49 -290 0
-50 65 -49 291 0
-50 65 -49 -291 0
51 64 50 292 0
51 64 50 -292 0
-51 -64 50 293 0
-51 -64 50 -293 0
51 -64 -50 294 0
51 -64 -50 -294 0
-51 64 -50 295 0
-51 64 -50 -295 0
52 63 51 296 0
52 63 51 -296 0
-52 -63 51 297 0
-52 -63 51 -297 0
52 -63 -51 298 0
52 -63 -51 -298 0
-52 63 -51 299 0
-52 63 -51 -299 0
53 62 52 300 0
53 62 52 -300 0
-53 -62 52 301 0
-53 -62 52 -301 0
53 -62 -52 302 0
53 -62 -52 -302 0
-53 62 -52 303 0
-53 62 -52 -303 0
54 61 53 304 0
54 61 53 -304 0
-54 -61 53 305 0
-54 -61 53 -305 0
54 -61 -53 306 0
54 -61 -53 -306 0
-54 61 -53 307 0
-54 61 -53 -307 0
55 60 54 308 0
55 60 54 -308 0
-55 -60 54 309 0
-55 -60 54 -309 0
55 -60 -54 310 0
55 -60 -54 -310 0
-55 60 -54 311 0
-55 60 -54 -311 0
56 59 55 312 0
56 59 55 -312 0
-56 -59 55 313 0
-56 -59 55 -313 0
56 -59 -55 314 0
56 -59 -55 -314 0
-56 59 -55 315 0
-56 59 -55 -315 0
57 58 -56 316 0
57 58 -56 -316 0
-57 -58 -56 317 0
-57 -58 -56 -317 0
57 -58 56 318 0
57 -58 56 -318 0
-57 58 56 319 0
-57 58 56 -319 0
